NAME : random_9
COMMENT : 32 random nodes
TYPE : TSP
DIMENSION : 32
EDGE_WEIGHT_TYPE : EUC_2D
NODE_COORD_SECTION
1 -2581 3509
2 2917 -14
3 -1105 -2707
4 256 -315
5 -2629 4509
6 -193 4247
7 392 93
8 3177 1354
9 -1110 -1154
10 3907 2563
11 -2424 3123
12 968 -1864
13 2450 3386
14 3542 -1248
15 2377 -1620
16 1436 2556
17 3682 73
18 4521 -993
19 -1995 4628
20 -589 2092
21 1184 1106
22 2777 1033
23 3589 -1073
24 -1151 -1021
25 -585 -2349
26 2681 3389
27 3413 3930
28 4411 -1087
29 -2562 -2485
30 3331 -2668
31 -374 576
32 -2544 2785
EOF